p cnf 965 2478
51 -698 -1 0
-51 698 0
-51 1 0
52 -51 -3 0
-52 51 0
-52 3 0
53 -699 -1 0
-53 699 0
-53 1 0
54 -53 -5 0
-54 53 0
-54 5 0
55 -700 -701 0
-55 700 0
-55 701 0
56 -702 -6 0
-56 702 0
-56 6 0
57 -56 -8 0
-57 56 0
-57 8 0
58 -703 -55 0
-58 703 0
-58 55 0
59 -10 -9 0
-59 10 0
-59 9 0
60 -59 -11 0
-60 59 0
-60 11 0
61 -704 -58 0
-61 704 0
-61 58 0
62 -705 -12 0
-62 705 0
-62 12 0
63 -62 -706 0
-63 62 0
-63 706 0
64 -707 -61 0
-64 707 0
-64 61 0
65 -708 -709 0
-65 708 0
-65 709 0
66 -65 -17 0
-66 65 0
-66 17 0
67 -710 -64 0
-67 710 0
-67 64 0
68 -18 -3 0
-68 18 0
-68 3 0
69 -68 -711 0
-69 68 0
-69 711 0
70 -712 -67 0
-70 712 0
-70 67 0
71 -713 -2 0
-71 713 0
-71 2 0
72 -71 -21 0
-72 71 0
-72 21 0
73 -714 -70 0
-73 714 0
-73 70 0
74 -715 -1 0
-74 715 0
-74 1 0
75 -74 -3 0
-75 74 0
-75 3 0
76 -716 -73 0
-76 716 0
-76 73 0
77 -717 -12 0
-77 717 0
-77 12 0
78 -77 -718 0
-78 77 0
-78 718 0
79 -719 -76 0
-79 719 0
-79 76 0
80 -18 -15 0
-80 18 0
-80 15 0
81 -80 -720 0
-81 80 0
-81 720 0
82 -721 -79 0
-82 721 0
-82 79 0
83 -722 -24 0
-83 722 0
-83 24 0
84 -83 -723 0
-84 83 0
-84 723 0
85 -724 -82 0
-85 724 0
-85 82 0
86 -15 -698 0
-86 15 0
-86 698 0
87 -86 -5 0
-87 86 0
-87 5 0
88 -725 -85 0
-88 725 0
-88 85 0
89 -726 -705 0
-89 726 0
-89 705 0
90 -89 -8 0
-90 89 0
-90 8 0
91 -727 -88 0
-91 727 0
-91 88 0
92 -728 -27 0
-92 728 0
-92 27 0
93 -92 -729 0
-93 92 0
-93 729 0
94 -730 -91 0
-94 730 0
-94 91 0
95 -731 -732 0
-95 731 0
-95 732 0
96 -95 -31 0
-96 95 0
-96 31 0
97 -733 -94 0
-97 733 0
-97 94 0
98 -708 -9 0
-98 708 0
-98 9 0
99 -98 -734 0
-99 98 0
-99 734 0
100 -735 -97 0
-100 735 0
-100 97 0
101 -33 -32 0
-101 33 0
-101 32 0
102 -101 -21 0
-102 101 0
-102 21 0
103 -736 -100 0
-103 736 0
-103 100 0
104 -737 -34 0
-104 737 0
-104 34 0
105 -104 -36 0
-105 104 0
-105 36 0
106 -738 -103 0
-106 738 0
-106 103 0
107 -737 -8 0
-107 737 0
-107 8 0
108 -107 -26 0
-108 107 0
-108 26 0
109 -739 -106 0
-109 739 0
-109 106 0
110 -37 -717 0
-110 37 0
-110 717 0
111 -110 -8 0
-111 110 0
-111 8 0
112 -740 -109 0
-112 740 0
-112 109 0
113 -741 -742 0
-113 741 0
-113 742 0
114 -113 -743 0
-114 113 0
-114 743 0
115 -744 -112 0
-115 744 0
-115 112 0
116 -745 -32 0
-116 745 0
-116 32 0
117 -116 -746 0
-117 116 0
-117 746 0
118 -747 -115 0
-118 747 0
-118 115 0
119 -35 -6 0
-119 35 0
-119 6 0
120 -119 -11 0
-120 119 0
-120 11 0
121 -748 -118 0
-121 748 0
-121 118 0
122 -35 -708 0
-122 35 0
-122 708 0
123 -122 -749 0
-123 122 0
-123 749 0
124 -750 -121 0
-124 750 0
-124 121 0
125 -715 -15 0
-125 715 0
-125 15 0
126 -125 -31 0
-126 125 0
-126 31 0
127 -751 -124 0
-127 751 0
-127 124 0
128 -41 -752 0
-128 41 0
-128 752 0
129 -128 -42 0
-129 128 0
-129 42 0
130 -753 -127 0
-130 753 0
-130 127 0
131 -22 -10 0
-131 22 0
-131 10 0
132 -131 -731 0
-132 131 0
-132 731 0
133 -754 -130 0
-133 754 0
-133 130 0
134 -40 -728 0
-134 40 0
-134 728 0
135 -134 -755 0
-135 134 0
-135 755 0
136 -756 -133 0
-136 756 0
-136 133 0
137 -757 -6 0
-137 757 0
-137 6 0
138 -137 -758 0
-138 137 0
-138 758 0
139 -759 -136 0
-139 759 0
-139 136 0
140 -32 -12 0
-140 32 0
-140 12 0
141 -140 -729 0
-141 140 0
-141 729 0
142 -760 -139 0
-142 760 0
-142 139 0
143 -44 -761 0
-143 44 0
-143 761 0
144 -143 -23 0
-144 143 0
-144 23 0
145 -762 -142 0
-145 762 0
-145 142 0
146 -28 -7 0
-146 28 0
-146 7 0
147 -146 -10 0
-147 146 0
-147 10 0
148 -763 -145 0
-148 763 0
-148 145 0
149 -718 -705 0
-149 718 0
-149 705 0
150 -149 -18 0
-150 149 0
-150 18 0
151 -764 -148 0
-151 764 0
-151 148 0
152 -28 -24 0
-152 28 0
-152 24 0
153 -152 -9 0
-153 152 0
-153 9 0
154 -765 -151 0
-154 765 0
-154 151 0
155 -766 -25 0
-155 766 0
-155 25 0
156 -155 -26 0
-156 155 0
-156 26 0
157 -767 -154 0
-157 767 0
-157 154 0
158 -4 -768 0
-158 4 0
-158 768 0
159 -158 -18 0
-159 158 0
-159 18 0
160 -769 -157 0
-160 769 0
-160 157 0
161 -770 -37 0
-161 770 0
-161 37 0
162 -161 -19 0
-162 161 0
-162 19 0
163 -771 -160 0
-163 771 0
-163 160 0
164 -728 -709 0
-164 728 0
-164 709 0
165 -164 -772 0
-165 164 0
-165 772 0
166 -773 -163 0
-166 773 0
-166 163 0
167 -774 -3 0
-167 774 0
-167 3 0
168 -167 -19 0
-168 167 0
-168 19 0
169 -775 -166 0
-169 775 0
-169 166 0
170 -18 -709 0
-170 18 0
-170 709 0
171 -170 -19 0
-171 170 0
-171 19 0
172 -776 -169 0
-172 776 0
-172 169 0
173 -777 -29 0
-173 777 0
-173 29 0
174 -173 -778 0
-174 173 0
-174 778 0
175 -779 -172 0
-175 779 0
-175 172 0
176 -15 -752 0
-176 15 0
-176 752 0
177 -176 -31 0
-177 176 0
-177 31 0
178 -780 -175 0
-178 780 0
-178 175 0
179 -41 -23 0
-179 41 0
-179 23 0
180 -179 -778 0
-180 179 0
-180 778 0
181 -781 -178 0
-181 781 0
-181 178 0
182 -782 -778 0
-182 782 0
-182 778 0
183 -182 -43 0
-183 182 0
-183 43 0
184 -783 -181 0
-184 783 0
-184 181 0
185 -49 -46 0
-185 49 0
-185 46 0
186 -185 -784 0
-186 185 0
-186 784 0
187 -785 -184 0
-187 785 0
-187 184 0
188 -766 -38 0
-188 766 0
-188 38 0
189 -188 -15 0
-189 188 0
-189 15 0
190 -786 -187 0
-190 786 0
-190 187 0
191 -722 -711 0
-191 722 0
-191 711 0
192 -191 -14 0
-192 191 0
-192 14 0
193 -787 -190 0
-193 787 0
-193 190 0
194 -737 -788 0
-194 737 0
-194 788 0
195 -194 -784 0
-195 194 0
-195 784 0
196 -789 -193 0
-196 789 0
-196 193 0
197 -7 -5 0
-197 7 0
-197 5 0
198 -197 -774 0
-198 197 0
-198 774 0
199 -790 -196 0
-199 790 0
-199 196 0
200 -45 -1 0
-200 45 0
-200 1 0
201 -200 -3 0
-201 200 0
-201 3 0
202 -791 -199 0
-202 791 0
-202 199 0
203 -21 -3 0
-203 21 0
-203 3 0
204 -203 -792 0
-204 203 0
-204 792 0
205 -793 -202 0
-205 793 0
-205 202 0
206 -22 -13 0
-206 22 0
-206 13 0
207 -206 -18 0
-207 206 0
-207 18 0
208 -794 -205 0
-208 794 0
-208 205 0
209 -761 -7 0
-209 761 0
-209 7 0
210 -209 -709 0
-210 209 0
-210 709 0
211 -795 -208 0
-211 795 0
-211 208 0
212 -26 -711 0
-212 26 0
-212 711 0
213 -212 -43 0
-213 212 0
-213 43 0
214 -796 -211 0
-214 796 0
-214 211 0
215 -749 -1 0
-215 749 0
-215 1 0
216 -215 -732 0
-216 215 0
-216 732 0
217 -797 -214 0
-217 797 0
-217 214 0
218 -41 -37 0
-218 41 0
-218 37 0
219 -218 -18 0
-219 218 0
-219 18 0
220 -798 -217 0
-220 798 0
-220 217 0
221 -728 -799 0
-221 728 0
-221 799 0
222 -221 -14 0
-222 221 0
-222 14 0
223 -800 -220 0
-223 800 0
-223 220 0
224 -48 -37 0
-224 48 0
-224 37 0
225 -224 -728 0
-225 224 0
-225 728 0
226 -801 -223 0
-226 801 0
-226 223 0
227 -757 -768 0
-227 757 0
-227 768 0
228 -227 -50 0
-228 227 0
-228 50 0
229 -802 -226 0
-229 802 0
-229 226 0
230 -36 -3 0
-230 36 0
-230 3 0
231 -230 -21 0
-231 230 0
-231 21 0
232 -803 -229 0
-232 803 0
-232 229 0
233 -722 -757 0
-233 722 0
-233 757 0
234 -233 -804 0
-234 233 0
-234 804 0
235 -805 -232 0
-235 805 0
-235 232 0
236 -24 -720 0
-236 24 0
-236 720 0
237 -236 -11 0
-237 236 0
-237 11 0
238 -806 -235 0
-238 806 0
-238 235 0
239 -37 -746 0
-239 37 0
-239 746 0
240 -239 -47 0
-240 239 0
-240 47 0
241 -807 -238 0
-241 807 0
-241 238 0
242 -12 -698 0
-242 12 0
-242 698 0
243 -242 -18 0
-243 242 0
-243 18 0
244 -808 -241 0
-244 808 0
-244 241 0
245 -731 -23 0
-245 731 0
-245 23 0
246 -245 -11 0
-246 245 0
-246 11 0
247 -809 -244 0
-247 809 0
-247 244 0
248 -42 -15 0
-248 42 0
-248 15 0
249 -248 -30 0
-249 248 0
-249 30 0
250 -810 -247 0
-250 810 0
-250 247 0
251 -29 -705 0
-251 29 0
-251 705 0
252 -251 -804 0
-252 251 0
-252 804 0
253 -811 -250 0
-253 811 0
-253 250 0
254 -742 -37 0
-254 742 0
-254 37 0
255 -254 -50 0
-255 254 0
-255 50 0
256 -812 -253 0
-256 812 0
-256 253 0
257 -782 -16 0
-257 782 0
-257 16 0
258 -257 -774 0
-258 257 0
-258 774 0
259 -813 -256 0
-259 813 0
-259 256 0
260 -44 -25 0
-260 44 0
-260 25 0
261 -260 -30 0
-261 260 0
-261 30 0
262 -814 -259 0
-262 814 0
-262 259 0
263 -27 -699 0
-263 27 0
-263 699 0
264 -263 -778 0
-264 263 0
-264 778 0
265 -815 -262 0
-265 815 0
-265 262 0
266 -32 -768 0
-266 32 0
-266 768 0
267 -266 -717 0
-267 266 0
-267 717 0
268 -816 -265 0
-268 816 0
-268 265 0
269 -34 -743 0
-269 34 0
-269 743 0
270 -269 -26 0
-270 269 0
-270 26 0
271 -817 -268 0
-271 817 0
-271 268 0
272 -41 -32 0
-272 41 0
-272 32 0
273 -272 -711 0
-273 272 0
-273 711 0
274 -818 -271 0
-274 818 0
-274 271 0
275 -42 -734 0
-275 42 0
-275 734 0
276 -275 -720 0
-276 275 0
-276 720 0
277 -819 -274 0
-277 819 0
-277 274 0
278 -34 -734 0
-278 34 0
-278 734 0
279 -278 -804 0
-279 278 0
-279 804 0
280 -820 -277 0
-280 820 0
-280 277 0
281 -24 -698 0
-281 24 0
-281 698 0
282 -281 -746 0
-282 281 0
-282 746 0
283 -821 -280 0
-283 821 0
-283 280 0
284 -734 -702 0
-284 734 0
-284 702 0
285 -284 -731 0
-285 284 0
-285 731 0
286 -822 -283 0
-286 822 0
-286 283 0
287 -152 -26 0
-287 152 0
-287 26 0
288 -823 -286 0
-288 823 0
-288 286 0
289 -22 -15 0
-289 22 0
-289 15 0
290 -289 -792 0
-290 289 0
-290 792 0
291 -824 -288 0
-291 824 0
-291 288 0
292 -30 -24 0
-292 30 0
-292 24 0
293 -292 -26 0
-293 292 0
-293 26 0
294 -825 -291 0
-294 825 0
-294 291 0
295 -42 -768 0
-295 42 0
-295 768 0
296 -295 -706 0
-296 295 0
-296 706 0
297 -826 -294 0
-297 826 0
-297 294 0
298 -774 -22 0
-298 774 0
-298 22 0
299 -298 -31 0
-299 298 0
-299 31 0
300 -827 -297 0
-300 827 0
-300 297 0
301 -47 -44 0
-301 47 0
-301 44 0
302 -301 -19 0
-302 301 0
-302 19 0
303 -828 -300 0
-303 828 0
-303 300 0
304 -42 -746 0
-304 42 0
-304 746 0
305 -304 -45 0
-305 304 0
-305 45 0
306 -829 -303 0
-306 829 0
-306 303 0
307 -766 -745 0
-307 766 0
-307 745 0
308 -307 -784 0
-308 307 0
-308 784 0
309 -830 -306 0
-309 830 0
-309 306 0
310 -784 -831 0
-310 784 0
-310 831 0
311 -310 -11 0
-311 310 0
-311 11 0
312 -832 -309 0
-312 832 0
-312 309 0
313 -3 -2 0
-313 3 0
-313 2 0
314 -313 -706 0
-314 313 0
-314 706 0
315 -833 -312 0
-315 833 0
-315 312 0
316 -782 -729 0
-316 782 0
-316 729 0
317 -316 -723 0
-317 316 0
-317 723 0
318 -834 -315 0
-318 834 0
-318 315 0
319 -723 -22 0
-319 723 0
-319 22 0
320 -319 -11 0
-320 319 0
-320 11 0
321 -835 -318 0
-321 835 0
-321 318 0
322 -45 -831 0
-322 45 0
-322 831 0
323 -322 -755 0
-323 322 0
-323 755 0
324 -836 -321 0
-324 836 0
-324 321 0
325 -35 -752 0
-325 35 0
-325 752 0
326 -325 -28 0
-326 325 0
-326 28 0
327 -837 -324 0
-327 837 0
-327 324 0
328 -28 -799 0
-328 28 0
-328 799 0
329 -328 -10 0
-329 328 0
-329 10 0
330 -838 -327 0
-330 838 0
-330 327 0
331 -49 -33 0
-331 49 0
-331 33 0
332 -331 -728 0
-332 331 0
-332 728 0
333 -839 -330 0
-333 839 0
-333 330 0
334 -784 -743 0
-334 784 0
-334 743 0
335 -334 -18 0
-335 334 0
-335 18 0
336 -840 -333 0
-336 840 0
-336 333 0
337 -50 -33 0
-337 50 0
-337 33 0
338 -337 -726 0
-338 337 0
-338 726 0
339 -841 -336 0
-339 841 0
-339 336 0
340 -713 -734 0
-340 713 0
-340 734 0
341 -340 -778 0
-341 340 0
-341 778 0
342 -842 -339 0
-342 842 0
-342 339 0
343 -14 -720 0
-343 14 0
-343 720 0
344 -343 -11 0
-344 343 0
-344 11 0
345 -843 -342 0
-345 843 0
-345 342 0
346 -742 -743 0
-346 742 0
-346 743 0
347 -346 -14 0
-347 346 0
-347 14 0
348 -844 -345 0
-348 844 0
-348 345 0
349 -44 -788 0
-349 44 0
-349 788 0
350 -349 -774 0
-350 349 0
-350 774 0
351 -845 -348 0
-351 845 0
-351 348 0
352 -784 -4 0
-352 784 0
-352 4 0
353 -352 -732 0
-353 352 0
-353 732 0
354 -846 -351 0
-354 846 0
-354 351 0
355 -325 -25 0
-355 325 0
-355 25 0
356 -847 -354 0
-356 847 0
-356 354 0
357 -742 -722 0
-357 742 0
-357 722 0
358 -357 -723 0
-358 357 0
-358 723 0
359 -848 -356 0
-359 848 0
-359 356 0
360 -38 -5 0
-360 38 0
-360 5 0
361 -360 -792 0
-361 360 0
-361 792 0
362 -849 -359 0
-362 849 0
-362 359 0
363 -137 -4 0
-363 137 0
-363 4 0
364 -850 -362 0
-364 850 0
-364 362 0
365 -34 -758 0
-365 34 0
-365 758 0
366 -365 -755 0
-366 365 0
-366 755 0
367 -851 -364 0
-367 851 0
-367 364 0
368 -852 -5 0
-368 852 0
-368 5 0
369 -368 -25 0
-369 368 0
-369 25 0
370 -853 -367 0
-370 853 0
-370 367 0
371 -774 -734 0
-371 774 0
-371 734 0
372 -371 -711 0
-372 371 0
-372 711 0
373 -854 -370 0
-373 854 0
-373 370 0
374 -161 -22 0
-374 161 0
-374 22 0
375 -855 -373 0
-375 855 0
-375 373 0
376 -777 -728 0
-376 777 0
-376 728 0
377 -376 -18 0
-377 376 0
-377 18 0
378 -856 -375 0
-378 856 0
-378 375 0
379 -23 -699 0
-379 23 0
-379 699 0
380 -379 -743 0
-380 379 0
-380 743 0
381 -857 -378 0
-381 857 0
-381 378 0
382 -852 -24 0
-382 852 0
-382 24 0
383 -382 -22 0
-383 382 0
-383 22 0
384 -858 -381 0
-384 858 0
-384 381 0
385 -741 -852 0
-385 741 0
-385 852 0
386 -385 -45 0
-386 385 0
-386 45 0
387 -859 -384 0
-387 859 0
-387 384 0
388 -48 -4 0
-388 48 0
-388 4 0
389 -388 -705 0
-389 388 0
-389 705 0
390 -860 -387 0
-390 860 0
-390 387 0
391 -25 -9 0
-391 25 0
-391 9 0
392 -391 -3 0
-392 391 0
-392 3 0
393 -861 -390 0
-393 861 0
-393 390 0
394 -770 -757 0
-394 770 0
-394 757 0
395 -394 -7 0
-395 394 0
-395 7 0
396 -862 -393 0
-396 862 0
-396 393 0
397 -35 -5 0
-397 35 0
-397 5 0
398 -397 -804 0
-398 397 0
-398 804 0
399 -863 -396 0
-399 863 0
-399 396 0
400 -784 -45 0
-400 784 0
-400 45 0
401 -400 -755 0
-401 400 0
-401 755 0
402 -864 -399 0
-402 864 0
-402 399 0
403 -865 -766 0
-403 865 0
-403 766 0
404 -403 -720 0
-404 403 0
-404 720 0
405 -866 -402 0
-405 866 0
-405 402 0
406 -38 -32 0
-406 38 0
-406 32 0
407 -406 -3 0
-407 406 0
-407 3 0
408 -867 -405 0
-408 867 0
-408 405 0
409 -720 -5 0
-409 720 0
-409 5 0
410 -409 -43 0
-410 409 0
-410 43 0
411 -868 -408 0
-411 868 0
-411 408 0
412 -778 -6 0
-412 778 0
-412 6 0
413 -412 -772 0
-413 412 0
-413 772 0
414 -869 -411 0
-414 869 0
-414 411 0
415 -741 -752 0
-415 741 0
-415 752 0
416 -415 -14 0
-416 415 0
-416 14 0
417 -870 -414 0
-417 870 0
-417 414 0
418 -770 -742 0
-418 770 0
-418 742 0
419 -418 -27 0
-419 418 0
-419 27 0
420 -871 -417 0
-420 871 0
-420 417 0
421 -47 -41 0
-421 47 0
-421 41 0
422 -421 -31 0
-422 421 0
-422 31 0
423 -872 -420 0
-423 872 0
-423 420 0
424 -239 -19 0
-424 239 0
-424 19 0
425 -873 -423 0
-425 873 0
-425 423 0
426 -15 -705 0
-426 15 0
-426 705 0
427 -426 -726 0
-427 426 0
-427 726 0
428 -874 -425 0
-428 874 0
-428 425 0
429 -777 -25 0
-429 777 0
-429 25 0
430 -429 -749 0
-430 429 0
-430 749 0
431 -875 -428 0
-431 875 0
-431 428 0
432 -22 -726 0
-432 22 0
-432 726 0
433 -432 -26 0
-433 432 0
-433 26 0
434 -876 -431 0
-434 876 0
-434 431 0
435 -741 -24 0
-435 741 0
-435 24 0
436 -435 -713 0
-436 435 0
-436 713 0
437 -877 -434 0
-437 877 0
-437 434 0
438 -770 -731 0
-438 770 0
-438 731 0
439 -438 -43 0
-439 438 0
-439 43 0
440 -878 -437 0
-440 878 0
-440 437 0
441 -36 -2 0
-441 36 0
-441 2 0
442 -441 -26 0
-442 441 0
-442 26 0
443 -879 -440 0
-443 879 0
-443 440 0
444 -39 -768 0
-444 39 0
-444 768 0
445 -444 -782 0
-445 444 0
-445 782 0
446 -880 -443 0
-446 880 0
-446 443 0
447 -784 -742 0
-447 784 0
-447 742 0
448 -447 -8 0
-448 447 0
-448 8 0
449 -881 -446 0
-449 881 0
-449 446 0
450 -831 -18 0
-450 831 0
-450 18 0
451 -450 -43 0
-451 450 0
-451 43 0
452 -882 -449 0
-452 882 0
-452 449 0
453 -741 -699 0
-453 741 0
-453 699 0
454 -453 -8 0
-454 453 0
-454 8 0
455 -883 -452 0
-455 883 0
-455 452 0
456 -782 -40 0
-456 782 0
-456 40 0
457 -456 -711 0
-457 456 0
-457 711 0
458 -884 -455 0
-458 884 0
-458 455 0
459 -29 -768 0
-459 29 0
-459 768 0
460 -459 -21 0
-460 459 0
-460 21 0
461 -885 -458 0
-461 885 0
-461 458 0
462 -42 -5 0
-462 42 0
-462 5 0
463 -462 -19 0
-463 462 0
-463 19 0
464 -886 -461 0
-464 886 0
-464 461 0
465 -27 -708 0
-465 27 0
-465 708 0
466 -465 -22 0
-466 465 0
-466 22 0
467 -887 -464 0
-467 887 0
-467 464 0
468 -24 -709 0
-468 24 0
-468 709 0
469 -468 -35 0
-469 468 0
-469 35 0
470 -888 -467 0
-470 888 0
-470 467 0
471 -35 -729 0
-471 35 0
-471 729 0
472 -471 -47 0
-472 471 0
-472 47 0
473 -889 -470 0
-473 889 0
-473 470 0
474 -890 -768 0
-474 890 0
-474 768 0
475 -474 -792 0
-475 474 0
-475 792 0
476 -891 -473 0
-476 891 0
-476 473 0
477 -39 -4 0
-477 39 0
-477 4 0
478 -477 -784 0
-478 477 0
-478 784 0
479 -892 -476 0
-479 892 0
-479 476 0
480 -784 -42 0
-480 784 0
-480 42 0
481 -480 -743 0
-481 480 0
-481 743 0
482 -893 -479 0
-482 893 0
-482 479 0
483 -27 -2 0
-483 27 0
-483 2 0
484 -483 -705 0
-484 483 0
-484 705 0
485 -894 -482 0
-485 894 0
-485 482 0
486 -715 -6 0
-486 715 0
-486 6 0
487 -486 -9 0
-487 486 0
-487 9 0
488 -895 -485 0
-488 895 0
-488 485 0
489 -28 -27 0
-489 28 0
-489 27 0
490 -489 -755 0
-490 489 0
-490 755 0
491 -896 -488 0
-491 896 0
-491 488 0
492 -27 -1 0
-492 27 0
-492 1 0
493 -492 -43 0
-493 492 0
-493 43 0
494 -897 -491 0
-494 897 0
-494 491 0
495 -777 -39 0
-495 777 0
-495 39 0
496 -495 -770 0
-496 495 0
-496 770 0
497 -898 -494 0
-497 898 0
-497 494 0
498 -713 -702 0
-498 713 0
-498 702 0
499 -498 -17 0
-499 498 0
-499 17 0
500 -899 -497 0
-500 899 0
-500 497 0
501 -774 -752 0
-501 774 0
-501 752 0
502 -501 -26 0
-502 501 0
-502 26 0
503 -900 -500 0
-503 900 0
-503 500 0
504 -46 -737 0
-504 46 0
-504 737 0
505 -504 -8 0
-505 504 0
-505 8 0
506 -901 -503 0
-506 901 0
-506 503 0
507 -749 -799 0
-507 749 0
-507 799 0
508 -507 -723 0
-508 507 0
-508 723 0
509 -902 -506 0
-509 902 0
-509 506 0
510 -36 -33 0
-510 36 0
-510 33 0
511 -510 -28 0
-511 510 0
-511 28 0
512 -903 -509 0
-512 903 0
-512 509 0
513 -16 -12 0
-513 16 0
-513 12 0
514 -513 -711 0
-514 513 0
-514 711 0
515 -904 -512 0
-515 904 0
-515 512 0
516 -777 -774 0
-516 777 0
-516 774 0
517 -516 -804 0
-517 516 0
-517 804 0
518 -905 -515 0
-518 905 0
-518 515 0
519 -784 -20 0
-519 784 0
-519 20 0
520 -519 -48 0
-520 519 0
-520 48 0
521 -906 -518 0
-521 906 0
-521 518 0
522 -39 -5 0
-522 39 0
-522 5 0
523 -522 -50 0
-523 522 0
-523 50 0
524 -907 -521 0
-524 907 0
-524 521 0
525 -709 -6 0
-525 709 0
-525 6 0
526 -525 -782 0
-526 525 0
-526 782 0
527 -908 -524 0
-527 908 0
-527 524 0
528 -41 -831 0
-528 41 0
-528 831 0
529 -528 -45 0
-529 528 0
-529 45 0
530 -909 -527 0
-530 909 0
-530 527 0
531 -742 -757 0
-531 742 0
-531 757 0
532 -531 -758 0
-532 531 0
-532 758 0
533 -910 -530 0
-533 910 0
-533 530 0
534 -17 -720 0
-534 17 0
-534 720 0
535 -534 -731 0
-535 534 0
-535 731 0
536 -911 -533 0
-536 911 0
-536 533 0
537 -40 -15 0
-537 40 0
-537 15 0
538 -537 -792 0
-538 537 0
-538 792 0
539 -912 -536 0
-539 912 0
-539 536 0
540 -20 -702 0
-540 20 0
-540 702 0
541 -540 -9 0
-541 540 0
-541 9 0
542 -913 -539 0
-542 913 0
-542 539 0
543 -758 -10 0
-543 758 0
-543 10 0
544 -543 -11 0
-544 543 0
-544 11 0
545 -914 -542 0
-545 914 0
-545 542 0
546 -766 -28 0
-546 766 0
-546 28 0
547 -546 -18 0
-547 546 0
-547 18 0
548 -915 -545 0
-548 915 0
-548 545 0
549 -705 -746 0
-549 705 0
-549 746 0
550 -549 -9 0
-550 549 0
-550 9 0
551 -916 -548 0
-551 916 0
-551 548 0
552 -737 -4 0
-552 737 0
-552 4 0
553 -552 -726 0
-553 552 0
-553 726 0
554 -917 -551 0
-554 917 0
-554 551 0
555 -784 -33 0
-555 784 0
-555 33 0
556 -555 -726 0
-556 555 0
-556 726 0
557 -918 -554 0
-557 918 0
-557 554 0
558 -852 -34 0
-558 852 0
-558 34 0
559 -558 -713 0
-559 558 0
-559 713 0
560 -919 -557 0
-560 919 0
-560 557 0
561 -865 -702 0
-561 865 0
-561 702 0
562 -561 -26 0
-562 561 0
-562 26 0
563 -920 -560 0
-563 920 0
-563 560 0
564 -723 -722 0
-564 723 0
-564 722 0
565 -564 -14 0
-565 564 0
-565 14 0
566 -921 -563 0
-566 921 0
-566 563 0
567 -50 -42 0
-567 50 0
-567 42 0
568 -567 -25 0
-568 567 0
-568 25 0
569 -922 -566 0
-569 922 0
-569 566 0
570 -766 -34 0
-570 766 0
-570 34 0
571 -570 -22 0
-571 570 0
-571 22 0
572 -923 -569 0
-572 923 0
-572 569 0
573 -742 -33 0
-573 742 0
-573 33 0
574 -573 -731 0
-574 573 0
-574 731 0
575 -924 -572 0
-575 924 0
-575 572 0
576 -13 -7 0
-576 13 0
-576 7 0
577 -576 -772 0
-577 576 0
-577 772 0
578 -925 -575 0
-578 925 0
-578 575 0
579 -777 -742 0
-579 777 0
-579 742 0
580 -579 -25 0
-580 579 0
-580 25 0
581 -926 -578 0
-581 926 0
-581 578 0
582 -26 -720 0
-582 26 0
-582 720 0
583 -582 -19 0
-583 582 0
-583 19 0
584 -927 -581 0
-584 927 0
-584 581 0
585 -782 -30 0
-585 782 0
-585 30 0
586 -585 -711 0
-586 585 0
-586 711 0
587 -928 -584 0
-587 928 0
-587 584 0
588 -737 -22 0
-588 737 0
-588 22 0
589 -588 -30 0
-589 588 0
-589 30 0
590 -929 -587 0
-590 929 0
-590 587 0
591 -729 -699 0
-591 729 0
-591 699 0
592 -591 -758 0
-592 591 0
-592 758 0
593 -930 -590 0
-593 930 0
-593 590 0
594 -717 -20 0
-594 717 0
-594 20 0
595 -594 -11 0
-595 594 0
-595 11 0
596 -931 -593 0
-596 931 0
-596 593 0
597 -32 -20 0
-597 32 0
-597 20 0
598 -597 -865 0
-598 597 0
-598 865 0
599 -932 -596 0
-599 932 0
-599 596 0
600 -50 -34 0
-600 50 0
-600 34 0
601 -600 -778 0
-601 600 0
-601 778 0
602 -933 -599 0
-602 933 0
-602 599 0
603 -865 -41 0
-603 865 0
-603 41 0
604 -603 -758 0
-604 603 0
-604 758 0
605 -934 -602 0
-605 934 0
-605 602 0
606 -32 -757 0
-606 32 0
-606 757 0
607 -606 -792 0
-607 606 0
-607 792 0
608 -935 -605 0
-608 935 0
-608 605 0
609 -745 -39 0
-609 745 0
-609 39 0
610 -609 -772 0
-610 609 0
-610 772 0
611 -936 -608 0
-611 936 0
-611 608 0
612 -251 -792 0
-612 251 0
-612 792 0
613 -937 -611 0
-613 937 0
-613 611 0
614 -27 -22 0
-614 27 0
-614 22 0
615 -614 -718 0
-615 614 0
-615 718 0
616 -938 -613 0
-616 938 0
-616 613 0
617 -777 -766 0
-617 777 0
-617 766 0
618 -617 -12 0
-618 617 0
-618 12 0
619 -939 -616 0
-619 939 0
-619 616 0
620 -777 -770 0
-620 777 0
-620 770 0
621 -620 -728 0
-621 620 0
-621 728 0
622 -940 -619 0
-622 940 0
-622 619 0
623 -782 -715 0
-623 782 0
-623 715 0
624 -623 -21 0
-624 623 0
-624 21 0
625 -941 -622 0
-625 941 0
-625 622 0
626 -777 -731 0
-626 777 0
-626 731 0
627 -626 -11 0
-627 626 0
-627 11 0
628 -942 -625 0
-628 942 0
-628 625 0
629 -10 -699 0
-629 10 0
-629 699 0
630 -629 -804 0
-630 629 0
-630 804 0
631 -943 -628 0
-631 943 0
-631 628 0
632 -27 -752 0
-632 27 0
-632 752 0
633 -632 -718 0
-633 632 0
-633 718 0
634 -944 -631 0
-634 944 0
-634 631 0
635 -49 -6 0
-635 49 0
-635 6 0
636 -635 -772 0
-636 635 0
-636 772 0
637 -945 -634 0
-637 945 0
-637 634 0
638 -717 -702 0
-638 717 0
-638 702 0
639 -638 -43 0
-639 638 0
-639 43 0
640 -946 -637 0
-640 946 0
-640 637 0
641 -737 -699 0
-641 737 0
-641 699 0
642 -641 -792 0
-642 641 0
-642 792 0
643 -947 -640 0
-643 947 0
-643 640 0
644 -44 -24 0
-644 44 0
-644 24 0
645 -644 -50 0
-645 644 0
-645 50 0
646 -948 -643 0
-646 948 0
-646 643 0
647 -50 -32 0
-647 50 0
-647 32 0
648 -647 -3 0
-648 647 0
-648 3 0
649 -949 -646 0
-649 949 0
-649 646 0
650 -38 -24 0
-650 38 0
-650 24 0
651 -650 -715 0
-651 650 0
-651 715 0
652 -950 -649 0
-652 950 0
-652 649 0
653 -34 -4 0
-653 34 0
-653 4 0
654 -653 -758 0
-654 653 0
-654 758 0
655 -951 -652 0
-655 951 0
-655 652 0
656 -831 -5 0
-656 831 0
-656 5 0
657 -656 -758 0
-657 656 0
-657 758 0
658 -952 -655 0
-658 952 0
-658 655 0
659 -743 -12 0
-659 743 0
-659 12 0
660 -659 -8 0
-660 659 0
-660 8 0
661 -953 -658 0
-661 953 0
-661 658 0
662 -722 -772 0
-662 722 0
-662 772 0
663 -662 -31 0
-663 662 0
-663 31 0
664 -954 -661 0
-664 954 0
-664 661 0
665 -705 -1 0
-665 705 0
-665 1 0
666 -665 -706 0
-666 665 0
-666 706 0
667 -955 -664 0
-667 955 0
-667 664 0
668 -774 -5 0
-668 774 0
-668 5 0
669 -668 -13 0
-669 668 0
-669 13 0
670 -956 -667 0
-670 956 0
-670 667 0
671 -38 -2 0
-671 38 0
-671 2 0
672 -671 -13 0
-672 671 0
-672 13 0
673 -957 -670 0
-673 957 0
-673 670 0
674 -717 -746 0
-674 717 0
-674 746 0
675 -674 -778 0
-675 674 0
-675 778 0
676 -958 -673 0
-676 958 0
-676 673 0
677 -766 -12 0
-677 766 0
-677 12 0
678 -677 -728 0
-678 677 0
-678 728 0
679 -959 -676 0
-679 959 0
-679 676 0
680 -729 -720 0
-680 729 0
-680 720 0
681 -680 -11 0
-681 680 0
-681 11 0
682 -960 -679 0
-682 960 0
-682 679 0
683 -49 -40 0
-683 49 0
-683 40 0
684 -683 -33 0
-684 683 0
-684 33 0
685 -961 -682 0
-685 961 0
-685 682 0
686 -717 -1 0
-686 717 0
-686 1 0
687 -686 -788 0
-687 686 0
-687 788 0
688 -962 -685 0
-688 962 0
-688 685 0
689 -39 -831 0
-689 39 0
-689 831 0
690 -689 -758 0
-690 689 0
-690 758 0
691 -963 -688 0
-691 963 0
-691 688 0
692 -34 -709 0
-692 34 0
-692 709 0
693 -692 -774 0
-693 692 0
-693 774 0
694 -964 -691 0
-694 964 0
-694 691 0
695 -777 -746 0
-695 777 0
-695 746 0
696 -695 -16 0
-696 695 0
-696 16 0
697 -965 -694 0
-697 965 0
-697 694 0
-698 -2 0
698 2 0
-699 -4 0
699 4 0
-700 -54 0
700 54 0
-701 -52 0
701 52 0
-702 -7 0
702 7 0
-703 -57 0
703 57 0
-704 -60 0
704 60 0
-705 -13 0
705 13 0
-706 -14 0
706 14 0
-707 -63 0
707 63 0
-708 -16 0
708 16 0
-709 -15 0
709 15 0
-710 -66 0
710 66 0
-711 -19 0
711 19 0
-712 -69 0
712 69 0
-713 -20 0
713 20 0
-714 -72 0
714 72 0
-715 -22 0
715 22 0
-716 -75 0
716 75 0
-717 -23 0
717 23 0
-718 -17 0
718 17 0
-719 -78 0
719 78 0
-720 -8 0
720 8 0
-721 -81 0
721 81 0
-722 -25 0
722 25 0
-723 -26 0
723 26 0
-724 -84 0
724 84 0
-725 -87 0
725 87 0
-726 -18 0
726 18 0
-727 -90 0
727 90 0
-728 -28 0
728 28 0
-729 -29 0
729 29 0
-730 -93 0
730 93 0
-731 -30 0
731 30 0
-732 -9 0
732 9 0
-733 -96 0
733 96 0
-734 -10 0
734 10 0
-735 -99 0
735 99 0
-736 -102 0
736 102 0
-737 -35 0
737 35 0
-738 -105 0
738 105 0
-739 -108 0
739 108 0
-740 -111 0
740 111 0
-741 -39 0
741 39 0
-742 -38 0
742 38 0
-743 -33 0
743 33 0
-744 -114 0
744 114 0
-745 -40 0
745 40 0
-746 -12 0
746 12 0
-747 -117 0
747 117 0
-748 -120 0
748 120 0
-749 -36 0
749 36 0
-750 -123 0
750 123 0
-751 -126 0
751 126 0
-752 -6 0
752 6 0
-753 -129 0
753 129 0
-754 -132 0
754 132 0
-755 -43 0
755 43 0
-756 -135 0
756 135 0
-757 -24 0
757 24 0
-758 -31 0
758 31 0
-759 -138 0
759 138 0
-760 -141 0
760 141 0
-761 -34 0
761 34 0
-762 -144 0
762 144 0
-763 -147 0
763 147 0
-764 -150 0
764 150 0
-765 -153 0
765 153 0
-766 -44 0
766 44 0
-767 -156 0
767 156 0
-768 -1 0
768 1 0
-769 -159 0
769 159 0
-770 -41 0
770 41 0
-771 -162 0
771 162 0
-772 -21 0
772 21 0
-773 -165 0
773 165 0
-774 -45 0
774 45 0
-775 -168 0
775 168 0
-776 -171 0
776 171 0
-777 -46 0
777 46 0
-778 -47 0
778 47 0
-779 -174 0
779 174 0
-780 -177 0
780 177 0
-781 -180 0
781 180 0
-782 -48 0
782 48 0
-783 -183 0
783 183 0
-784 -50 0
784 50 0
-785 -186 0
785 186 0
-786 -189 0
786 189 0
-787 -192 0
787 192 0
-788 -5 0
788 5 0
-789 -195 0
789 195 0
-790 -198 0
790 198 0
-791 -201 0
791 201 0
-792 -11 0
792 11 0
-793 -204 0
793 204 0
-794 -207 0
794 207 0
-795 -210 0
795 210 0
-796 -213 0
796 213 0
-797 -216 0
797 216 0
-798 -219 0
798 219 0
-799 -27 0
799 27 0
-800 -222 0
800 222 0
-801 -225 0
801 225 0
-802 -228 0
802 228 0
-803 -231 0
803 231 0
-804 -3 0
804 3 0
-805 -234 0
805 234 0
-806 -237 0
806 237 0
-807 -240 0
807 240 0
-808 -243 0
808 243 0
-809 -246 0
809 246 0
-810 -249 0
810 249 0
-811 -252 0
811 252 0
-812 -255 0
812 255 0
-813 -258 0
813 258 0
-814 -261 0
814 261 0
-815 -264 0
815 264 0
-816 -267 0
816 267 0
-817 -270 0
817 270 0
-818 -273 0
818 273 0
-819 -276 0
819 276 0
-820 -279 0
820 279 0
-821 -282 0
821 282 0
-822 -285 0
822 285 0
-823 -287 0
823 287 0
-824 -290 0
824 290 0
-825 -293 0
825 293 0
-826 -296 0
826 296 0
-827 -299 0
827 299 0
-828 -302 0
828 302 0
-829 -305 0
829 305 0
-830 -308 0
830 308 0
-831 -32 0
831 32 0
-832 -311 0
832 311 0
-833 -314 0
833 314 0
-834 -317 0
834 317 0
-835 -320 0
835 320 0
-836 -323 0
836 323 0
-837 -326 0
837 326 0
-838 -329 0
838 329 0
-839 -332 0
839 332 0
-840 -335 0
840 335 0
-841 -338 0
841 338 0
-842 -341 0
842 341 0
-843 -344 0
843 344 0
-844 -347 0
844 347 0
-845 -350 0
845 350 0
-846 -353 0
846 353 0
-847 -355 0
847 355 0
-848 -358 0
848 358 0
-849 -361 0
849 361 0
-850 -363 0
850 363 0
-851 -366 0
851 366 0
-852 -37 0
852 37 0
-853 -369 0
853 369 0
-854 -372 0
854 372 0
-855 -374 0
855 374 0
-856 -377 0
856 377 0
-857 -380 0
857 380 0
-858 -383 0
858 383 0
-859 -386 0
859 386 0
-860 -389 0
860 389 0
-861 -392 0
861 392 0
-862 -395 0
862 395 0
-863 -398 0
863 398 0
-864 -401 0
864 401 0
-865 -49 0
865 49 0
-866 -404 0
866 404 0
-867 -407 0
867 407 0
-868 -410 0
868 410 0
-869 -413 0
869 413 0
-870 -416 0
870 416 0
-871 -419 0
871 419 0
-872 -422 0
872 422 0
-873 -424 0
873 424 0
-874 -427 0
874 427 0
-875 -430 0
875 430 0
-876 -433 0
876 433 0
-877 -436 0
877 436 0
-878 -439 0
878 439 0
-879 -442 0
879 442 0
-880 -445 0
880 445 0
-881 -448 0
881 448 0
-882 -451 0
882 451 0
-883 -454 0
883 454 0
-884 -457 0
884 457 0
-885 -460 0
885 460 0
-886 -463 0
886 463 0
-887 -466 0
887 466 0
-888 -469 0
888 469 0
-889 -472 0
889 472 0
-890 -42 0
890 42 0
-891 -475 0
891 475 0
-892 -478 0
892 478 0
-893 -481 0
893 481 0
-894 -484 0
894 484 0
-895 -487 0
895 487 0
-896 -490 0
896 490 0
-897 -493 0
897 493 0
-898 -496 0
898 496 0
-899 -499 0
899 499 0
-900 -502 0
900 502 0
-901 -505 0
901 505 0
-902 -508 0
902 508 0
-903 -511 0
903 511 0
-904 -514 0
904 514 0
-905 -517 0
905 517 0
-906 -520 0
906 520 0
-907 -523 0
907 523 0
-908 -526 0
908 526 0
-909 -529 0
909 529 0
-910 -532 0
910 532 0
-911 -535 0
911 535 0
-912 -538 0
912 538 0
-913 -541 0
913 541 0
-914 -544 0
914 544 0
-915 -547 0
915 547 0
-916 -550 0
916 550 0
-917 -553 0
917 553 0
-918 -556 0
918 556 0
-919 -559 0
919 559 0
-920 -562 0
920 562 0
-921 -565 0
921 565 0
-922 -568 0
922 568 0
-923 -571 0
923 571 0
-924 -574 0
924 574 0
-925 -577 0
925 577 0
-926 -580 0
926 580 0
-927 -583 0
927 583 0
-928 -586 0
928 586 0
-929 -589 0
929 589 0
-930 -592 0
930 592 0
-931 -595 0
931 595 0
-932 -598 0
932 598 0
-933 -601 0
933 601 0
-934 -604 0
934 604 0
-935 -607 0
935 607 0
-936 -610 0
936 610 0
-937 -612 0
937 612 0
-938 -615 0
938 615 0
-939 -618 0
939 618 0
-940 -621 0
940 621 0
-941 -624 0
941 624 0
-942 -627 0
942 627 0
-943 -630 0
943 630 0
-944 -633 0
944 633 0
-945 -636 0
945 636 0
-946 -639 0
946 639 0
-947 -642 0
947 642 0
-948 -645 0
948 645 0
-949 -648 0
949 648 0
-950 -651 0
950 651 0
-951 -654 0
951 654 0
-952 -657 0
952 657 0
-953 -660 0
953 660 0
-954 -663 0
954 663 0
-955 -666 0
955 666 0
-956 -669 0
956 669 0
-957 -672 0
957 672 0
-958 -675 0
958 675 0
-959 -678 0
959 678 0
-960 -681 0
960 681 0
-961 -684 0
961 684 0
-962 -687 0
962 687 0
-963 -690 0
963 690 0
-964 -693 0
964 693 0
-965 -696 0
965 696 0
697 0
